************************************************************************
file with basedata            : n/a
initial value random generator: n/a
************************************************************************
projects                      :  1
jobs (incl. supersource/sink ):  32
horizon                       :  191
RESOURCES
  - renewable                 :  4   R
  - nonrenewable              :  0   N
  - doubly constrained        :  0   D
************************************************************************
PROJECT INFORMATION:
pronr.  #jobs rel.date duedate tardcost  MPM-Time
    1     30      0       60        1       60
************************************************************************
PRECEDENCE RELATIONS:
jobnr.    #modes  #successors   successors
   1        1          3           2   3   4
   2        1          1          11
   3        1          2           6   8
   4        1          2           5   7
   5        1          1          27
   6        1          3          13  14  16
   7        1          1           8
   8        1          3           9  14  16
   9        1          2          10  12
  10        1          3          15  19  24
  11        1          1          23
  12        1          2          21  22
  13        1          3          20  24  30
  14        1          1          17
  15        1          2          17  28
  16        1          1          18
  17        1          1          25
  18        1          1          21
  19        1          1          26
  20        1          1          25
  21        1          2          27  31
  22        1          2          23  27
  23        1          1          31
  24        1          1          26
  25        1          1          31
  26        1          1          28
  27        1          1          29
  28        1          1          29
  29        1          1          32
  30        1          1          32
  31        1          1          32
  32        1          0        
************************************************************************
REQUESTS/DURATIONS:
jobnr. mode duration  R 1  R 2  R 3  R 4
------------------------------------------------------------------------
  1      1     0    
  2      1     2       3   2
                       4   2
                       7   4
                       1   1
  3      1     8       0   0   0   0   0   0   0   0
                       0   0   0   0   0   0   0   0
                       0   0   0   0   0   0   0   0
                       3   3   3   3   3   3   3   3
  4      1     8       7   7   7   7   7   7   7   7
                       8   8   8   8   8   8   8   8
                       0   0   0   0   0   0   0   0
                       3   3   3   3   3   3   3   3
  5      1    10       6   6   3   6   3   6   6   6   3   6
                       1   1   1   1   1   1   1   1   1   1
                       7   7   4   7   4   7   7   7   4   7
                       0   0   0   0   0   0   0   0   0   0
  6      1     8       4   4   4   4   4   4   4   4
                       7   7   7   7   7   7   7   7
                       4   4   4   4   4   4   4   4
                       0   0   0   0   0   0   0   0
  7      1     7       9   9   9   9   9   9   9
                       1   1   1   1   1   1   1
                       4   4   4   4   4   4   4
                       4   4   4   4   4   4   4
  8      1     7       4   4   4   4   4   4   4
                       0   0   0   0   0   0   0
                       7   7   7   7   7   7   7
                       4   4   4   4   4   4   4
  9      1     1       2
                       9
                       5
                       2
 10      1     9       3   3   3   3   3   3   3   3   2
                       0   0   0   0   0   0   0   0   0
                       6   6   6   6   6   6   6   6   3
                       0   0   0   0   0   0   0   0   0
 11      1     7       7   7   7   7   7   7   7
                       7   7   7   7   7   7   7
                       4   4   4   4   4   4   4
                       7   7   7   7   7   7   7
 12      1     7       7   7   7   7   7   7   7
                       8   8   8   8   8   8   8
                       0   0   0   0   0   0   0
                       5   5   5   5   5   5   5
 13      1     9       0   0   0   0   0   0   0   0   0
                       1   1   1   1   1   1   1   1   1
                       1   1   1   1   1   1   1   1   1
                       0   0   0   0   0   0   0   0   0
 14      1     5       2   1   1   2   2
                       4   2   2   4   4
                       0   0   0   0   0
                       8   4   4   8   8
 15      1     5       2   1   2   2   2
                       0   0   0   0   0
                       7   4   7   7   7
                       5   3   5   5   5
 16      1     1       9
                       6
                       0
                       0
 17      1     9       5  10   5  10  10  10  10  10  10
                       1   1   1   1   1   1   1   1   1
                       5  10   5  10  10  10  10  10  10
                       4   7   4   7   7   7   7   7   7
 18      1     3      10  10   5
                       0   0   0
                       4   4   2
                      10  10   5
 19      1    10       6   6   6   6   6   6   6   6   6   6
                       0   0   0   0   0   0   0   0   0   0
                       1   1   1   1   1   1   1   1   1   1
                       3   3   3   3   3   3   3   3   3   3
 20      1     9       0   0   0   0   0   0   0   0   0
                       1   2   2   2   2   2   2   2   2
                       1   1   1   1   1   1   1   1   1
                       0   0   0   0   0   0   0   0   0
 21      1     3       0   0   0
                       7   7   7
                       2   2   2
                       2   2   2
 22      1     6       1   1   1   1   1   1
                       0   0   0   0   0   0
                       1   1   1   1   1   1
                       1   1   1   1   1   1
 23      1    10       5   5   5   5   5   5   5   5   5   5
                       2   2   2   2   2   2   2   2   2   2
                       5   5   5   5   5   5   5   5   5   5
                       6   6   6   6   6   6   6   6   6   6
 24      1     8       9   9   9   9   5   5   9   9
                       0   0   0   0   0   0   0   0
                       6   6   6   6   3   3   6   6
                      10  10  10  10   5   5  10  10
 25      1    10       0   0   0   0   0   0   0   0   0   0
                      10  10  10  10  10  10  10  10   5  10
                       0   0   0   0   0   0   0   0   0   0
                       0   0   0   0   0   0   0   0   0   0
 26      1     4       3   3   3   3
                       3   3   3   3
                       0   0   0   0
                       0   0   0   0
 27      1     1       8
                       2
                       4
                       2
 28      1     1       2
                       5
                      10
                       7
 29      1     9       4   4   4   4   4   2   4   4   4
                       2   2   2   2   2   1   2   2   2
                       9   9   9   9   9   5   9   9   9
                       8   8   8   8   8   4   8   8   8
 30      1    10       0   0   0   0   0   0   0   0   0   0
                       1   1   1   1   1   1   1   1   1   1
                       4   4   4   4   4   2   4   4   2   4
                       4   4   4   4   4   2   4   4   2   4
 31      1     4       7   7   7   7
                       1   1   1   1
                       8   8   8   8
                       1   1   1   1
 32      1     0    
************************************************************************
RESOURCEAVAILABILITIES:
  R 1  R 2  R 3  R 4

  12  24  24  24  24  24  12  24  24  24  24  24  24  24  24  24  24  24  24  24  12  24  24  24  24  24  24  24  24  24  24  24  24  24  24  24  24  12  24  24  24  24  24  24  24  24  24  24  24  12  24  24  24  24  12  24  24  12  24  24  24  24  24  24  24  24  24  24  24  24  24  24  24  24  24  24  24  24  24  12  24  24  24  24  24  24  24  24  24  24  24  24  24  24  24  24  24  24  24  24  24  12  24  24  24  24  24  24  24  24  24  24  12  24  24  24  24  24  24  24  24  24  24  12  24  24  24  24  24  24  24  24  24  24  24  24  24  24  24  24  24  24  24  24  24  24  24  24  24  24  24  24  24  12  24  24  24  24  24  24  24  24  24  24  24  24  24  24  24  24  24  24  24  24  24  24  24  24  24  24  24  24  24  24  24  24  24  24  12  24  24

   9  17  17  17  17  17   9  17  17  17  17  17  17  17  17  17  17  17  17  17   9  17  17  17  17  17  17  17  17  17  17  17  17  17  17  17  17   9  17  17  17  17  17  17  17  17  17  17  17   9  17  17  17  17   9  17  17   9  17  17  17  17  17  17  17  17  17  17  17  17  17  17  17  17  17  17  17  17  17   9  17  17  17  17  17  17  17  17  17  17  17  17  17  17  17  17  17  17  17  17  17   9  17  17  17  17  17  17  17  17  17  17   9  17  17  17  17  17  17  17  17  17  17   9  17  17  17  17  17  17  17  17  17  17  17  17  17  17  17  17  17  17  17  17  17  17  17  17  17  17  17  17  17   9  17  17  17  17  17  17  17  17  17  17  17  17  17  17  17  17  17  17  17  17  17  17  17  17  17  17  17  17  17  17  17  17  17  17   9  17  17

  10  19  19  19  19  19  10  19  19  19  19  19  19  19  19  19  19  19  19  19  10  19  19  19  19  19  19  19  19  19  19  19  19  19  19  19  19  10  19  19  19  19  19  19  19  19  19  19  19  10  19  19  19  19  10  19  19  10  19  19  19  19  19  19  19  19  19  19  19  19  19  19  19  19  19  19  19  19  19  10  19  19  19  19  19  19  19  19  19  19  19  19  19  19  19  19  19  19  19  19  19  10  19  19  19  19  19  19  19  19  19  19  10  19  19  19  19  19  19  19  19  19  19  10  19  19  19  19  19  19  19  19  19  19  19  19  19  19  19  19  19  19  19  19  19  19  19  19  19  19  19  19  19  10  19  19  19  19  19  19  19  19  19  19  19  19  19  19  19  19  19  19  19  19  19  19  19  19  19  19  19  19  19  19  19  19  19  19  10  19  19

  11  22  22  22  22  22  11  22  22  22  22  22  22  22  22  22  22  22  22  22  11  22  22  22  22  22  22  22  22  22  22  22  22  22  22  22  22  11  22  22  22  22  22  22  22  22  22  22  22  11  22  22  22  22  11  22  22  11  22  22  22  22  22  22  22  22  22  22  22  22  22  22  22  22  22  22  22  22  22  11  22  22  22  22  22  22  22  22  22  22  22  22  22  22  22  22  22  22  22  22  22  11  22  22  22  22  22  22  22  22  22  22  11  22  22  22  22  22  22  22  22  22  22  11  22  22  22  22  22  22  22  22  22  22  22  22  22  22  22  22  22  22  22  22  22  22  22  22  22  22  22  22  22  11  22  22  22  22  22  22  22  22  22  22  22  22  22  22  22  22  22  22  22  22  22  22  22  22  22  22  22  22  22  22  22  22  22  22  11  22  22

************************************************************************
